c sursa https://logictools.org/prop.html
p cnf 10 40
4 -2 -1
1 -5 -6
10 3 -5
7 8 -4
-6 -1 2
3 -5 -8
-9 3
-5 10
-7 -5 5
-3 -5 4
4 -6 5
2 10 -8
-2 -8 7
-2 1 -4
4 2
-10 -4
-5 4
6 1
-2 -6 3
-1 -2 -7
-2 -5
9 2 4
1 2 8
6 9 2
8 -9 -6
-3 -9 -1
-6 -10 -7
-3 -2
-6 2 -8
8 -3 -9
9 -10 1
8 9 1
-9 8 5
-10 -4 7
-2 5 -5
8 -6 5
4 -2 3
-5 3 6
1 9
7 2 -1
